Results/Experiment 1 Results/Existing Benchmark/RES_20/i-20-100-17.txt
solutions: 1 nodes: 2  modelTime: 115  solveTime: 12  totalTime: 129  modelSize: 7358  readTime: 2 matchingSize: 10
