Results/Experiment 2 Results/Existing Benchmark/i-20-100-17.lp
clingo version 5.4.0
Reading from tempSRTISolver.lp ...
Solving...
Answer: 1
matched(12,2) matched(16,3) matched(19,4) matched(20,5) matched(10,6) matched(18,7) matched(14,8) matched(1,9) matched(6,10) matched(13,11) matched(2,12) matched(11,13) matched(8,14) matched(17,15) matched(3,16) matched(15,17) matched(7,18) matched(4,19) matched(5,20) matched(9,1)
Optimization: 79
OPTIMUM FOUND

Models       : 1
  Optimum    : yes
Optimization : 79
Calls        : 1
Time         : 0.055s (Solving: 0.00s 1st Model: 0.00s Unsat: 0.00s)
CPU Time     : 0.055s
